% demand
num_movements = 25;
loading_factor = [1650, 1200, 1900, 1000, 800, 2000, 1850, 1950, 1150, 1550, 1400, 1950, 2000, 900, 1750, 1500, 1150, 800, 1100, 1250, 1450, 1100, 1450, 1400, 800];
pickup_time = [0, 0, 1, 1, 1, 3, 3, 4, 4, 5, 5, 5, 6, 6, 8, 8, 8, 8, 8, 9, 9, 9, 9, 10, 10];
delivery_time = [3, 3, 6, 3, 4, 5, 4, 5, 5, 7, 6, 6, 7, 7, 9, 9, 9, 9, 11, 10, 10, 11, 11, 11, 11];

% transporter definition
total_capacity = 7000;
num_decks = 3;
capacity = [3000, 1000, 3000];

% ways out of decks
num_ways_out = 1;
paths_out = array3d(decks, ways_out, decks, [
% ways out of deck d1
2, 3, 0, 

% ways out of deck d2
3, 0, 0, 

% ways out of deck d3
0, 0, 0,	

]);

